% Auto-generated by scripts/generate_dzn.py
% problem_type   = regex
% instance       = regex_90
% source_json    = instances_json/2_high_blowup/regex_90.json
% blowup         = 43.06666666666667
% representation = DFA

mode = 0;

var_count = 16;
Q = 1292;
S = 2;
q0 = 1;
F = {800, 801, 802, 803, 804, 805, 806, 807, 808, 809, 810, 811, 812, 813, 814, 815, 816, 817, 818, 819, 820, 821, 822, 823, 824, 825, 826, 827, 828, 829, 830, 831, 832, 833, 834, 835, 836, 837, 838, 839, 840, 841, 842, 843, 844, 845, 846, 847, 848, 849, 850, 851, 852, 853, 854, 855, 856, 857, 858, 859, 860, 861, 862, 863, 864, 865, 866, 867, 868, 869, 870, 871, 872, 873, 874, 875, 876, 877, 878, 879, 880, 881, 882, 883, 884, 885, 886, 887, 888, 889, 890, 891, 892, 893, 894, 895, 896, 897, 898, 899, 900, 901, 902, 903, 904, 905, 906, 907, 908, 909, 910, 911, 912, 913, 914, 915, 916, 917, 918, 919, 920, 921, 922, 923, 924, 925, 926, 927, 928, 929, 930, 931, 932, 933, 934, 935, 936, 937, 938, 939, 940, 941, 942, 943, 944, 945, 946, 947, 948, 949, 950, 951, 952, 953, 954, 955, 956, 957, 958, 959, 960, 961, 962, 963, 964, 965, 966, 967, 968, 969, 970, 971, 972, 973, 974, 975, 976, 977, 978, 979, 980, 981, 982, 983, 984, 985, 986, 987, 988, 989, 990, 991, 992, 993, 994, 995, 996, 997, 998, 999, 1000, 1001, 1002, 1003, 1004, 1005, 1006, 1007, 1008, 1009, 1010, 1011, 1012, 1013, 1014, 1015, 1016, 1017, 1018, 1019, 1020, 1021, 1022, 1023, 1024, 1025, 1026, 1027, 1028, 1029, 1030, 1031, 1032, 1033, 1034, 1035, 1036, 1037, 1038, 1039, 1040, 1041, 1042, 1043, 1044, 1045, 1046, 1047, 1048, 1049, 1050, 1051, 1052, 1053, 1054, 1055, 1056, 1057, 1058, 1059, 1060, 1061, 1062, 1063, 1064, 1065, 1066, 1067, 1068, 1069, 1070, 1071, 1072, 1073, 1074, 1075, 1076, 1077, 1078, 1079, 1080, 1081, 1082, 1083, 1084, 1085, 1086, 1087, 1088, 1089, 1090, 1091, 1092, 1093, 1094, 1095, 1096, 1097, 1098, 1099, 1100, 1101, 1102, 1103, 1104, 1105, 1106, 1107, 1108, 1109, 1110, 1111, 1112, 1113, 1114, 1115, 1116, 1117, 1118, 1119, 1120, 1121, 1122, 1123, 1124, 1125, 1126, 1127, 1128, 1129, 1130, 1131, 1132, 1133, 1134, 1135, 1136, 1137, 1138, 1139, 1140, 1141, 1142, 1143, 1144, 1145, 1146, 1147, 1148, 1149, 1150, 1151, 1152, 1153, 1154, 1155, 1156, 1157, 1158, 1159, 1160, 1161, 1162, 1163, 1164, 1165, 1166, 1167, 1168, 1169, 1170, 1171, 1172, 1173, 1174, 1175, 1176, 1177, 1178, 1179, 1180, 1181, 1182, 1183, 1184, 1185, 1186, 1187, 1188, 1189, 1190, 1191, 1192, 1193, 1194, 1195, 1196, 1197, 1198, 1199, 1200, 1201, 1202, 1203, 1204, 1205, 1206, 1207, 1208, 1209, 1210, 1211, 1212, 1213, 1214, 1215, 1216, 1217, 1218, 1219, 1220, 1221, 1222, 1223, 1224, 1225, 1226, 1227, 1228, 1229, 1230, 1231, 1232, 1233, 1234, 1235, 1236, 1237, 1238, 1239, 1240, 1241, 1242, 1243, 1244, 1245, 1246, 1247, 1248, 1249, 1250, 1251, 1252, 1253, 1254, 1255, 1256, 1257, 1258, 1259, 1260, 1261, 1262, 1263, 1264, 1265, 1266, 1267, 1268, 1269, 1270, 1271, 1272, 1273, 1274, 1275, 1276, 1277, 1278, 1279, 1280, 1281, 1282, 1283, 1284, 1285, 1286, 1287, 1288, 1289, 1290, 1291, 1292};
d_dfa = array2d(1..1292, 1..2, [
  1, 2,
  1, 3,
  1, 4,
  6, 5,
  8, 7,
  10, 9,
  12, 11,
  14, 13,
  16, 15,
  16, 17,
  19, 18,
  21, 20,
  23, 22,
  23, 24,
  26, 25,
  26, 27,
  26, 28,
  30, 29,
  32, 31,
  34, 33,
  34, 35,
  37, 36,
  37, 38,
  37, 39,
  41, 40,
  43, 42,
  43, 44,
  43, 45,
  47, 46,
  49, 48,
  51, 50,
  51, 52,
  54, 53,
  54, 55,
  54, 56,
  58, 57,
  60, 59,
  60, 61,
  60, 62,
  64, 63,
  66, 65,
  68, 67,
  68, 69,
  68, 70,
  72, 71,
  74, 73,
  76, 75,
  78, 77,
  78, 79,
  81, 80,
  81, 82,
  81, 83,
  85, 84,
  87, 86,
  87, 88,
  87, 89,
  91, 90,
  93, 92,
  95, 94,
  95, 96,
  95, 97,
  99, 98,
  101, 100,
  103, 102,
  105, 104,
  105, 106,
  108, 107,
  108, 109,
  108, 110,
  112, 111,
  114, 113,
  116, 115,
  118, 117,
  120, 119,
  122, 121,
  122, 123,
  125, 124,
  125, 126,
  125, 127,
  129, 128,
  131, 130,
  131, 132,
  131, 133,
  135, 134,
  137, 136,
  139, 138,
  139, 140,
  139, 141,
  143, 142,
  145, 144,
  147, 146,
  149, 148,
  149, 150,
  152, 151,
  152, 153,
  152, 154,
  156, 155,
  158, 157,
  160, 159,
  162, 161,
  164, 163,
  166, 165,
  166, 167,
  169, 168,
  169, 170,
  169, 171,
  173, 172,
  175, 174,
  175, 176,
  175, 177,
  179, 178,
  181, 180,
  183, 182,
  185, 184,
  187, 186,
  187, 188,
  190, 189,
  192, 191,
  194, 193,
  194, 195,
  197, 196,
  197, 198,
  197, 199,
  201, 200,
  203, 202,
  203, 204,
  203, 205,
  207, 206,
  209, 208,
  211, 210,
  211, 212,
  211, 213,
  215, 214,
  217, 216,
  219, 218,
  221, 220,
  221, 222,
  224, 223,
  224, 225,
  224, 226,
  228, 227,
  230, 229,
  232, 231,
  234, 233,
  236, 235,
  238, 237,
  238, 239,
  241, 240,
  241, 242,
  241, 243,
  245, 244,
  247, 246,
  247, 248,
  247, 249,
  251, 250,
  253, 252,
  255, 254,
  257, 256,
  259, 258,
  259, 260,
  262, 261,
  264, 263,
  266, 265,
  266, 267,
  269, 268,
  269, 270,
  269, 271,
  273, 272,
  275, 274,
  275, 276,
  275, 277,
  279, 278,
  281, 280,
  283, 282,
  283, 284,
  283, 285,
  287, 286,
  289, 288,
  291, 290,
  293, 292,
  293, 294,
  296, 295,
  298, 297,
  300, 299,
  300, 301,
  303, 302,
  303, 304,
  303, 305,
  307, 306,
  309, 308,
  311, 310,
  311, 312,
  314, 313,
  314, 315,
  314, 316,
  318, 317,
  320, 319,
  320, 321,
  320, 322,
  324, 323,
  326, 325,
  328, 327,
  328, 329,
  328, 330,
  332, 331,
  334, 333,
  336, 335,
  338, 337,
  338, 339,
  341, 340,
  341, 342,
  341, 343,
  345, 344,
  347, 346,
  349, 348,
  351, 350,
  353, 352,
  355, 354,
  355, 356,
  358, 357,
  358, 359,
  358, 360,
  362, 361,
  364, 363,
  364, 365,
  364, 366,
  368, 367,
  370, 369,
  372, 371,
  374, 373,
  376, 375,
  376, 377,
  379, 378,
  381, 380,
  383, 382,
  383, 384,
  386, 385,
  386, 387,
  386, 388,
  390, 389,
  392, 391,
  392, 393,
  392, 394,
  396, 395,
  398, 397,
  400, 399,
  400, 401,
  400, 402,
  404, 403,
  406, 405,
  408, 407,
  410, 409,
  410, 411,
  413, 412,
  415, 414,
  417, 416,
  417, 418,
  420, 419,
  420, 421,
  420, 422,
  424, 423,
  426, 425,
  428, 427,
  428, 429,
  431, 430,
  431, 432,
  431, 433,
  435, 434,
  437, 436,
  437, 438,
  437, 439,
  441, 440,
  443, 442,
  445, 444,
  445, 446,
  445, 447,
  449, 448,
  451, 450,
  453, 452,
  455, 454,
  455, 456,
  458, 457,
  458, 459,
  458, 460,
  462, 461,
  464, 463,
  466, 465,
  468, 467,
  470, 469,
  472, 471,
  472, 473,
  475, 474,
  475, 476,
  475, 477,
  479, 478,
  481, 480,
  483, 482,
  483, 484,
  486, 485,
  486, 487,
  486, 488,
  490, 489,
  492, 491,
  492, 493,
  492, 494,
  496, 495,
  498, 497,
  500, 499,
  500, 501,
  503, 502,
  503, 504,
  503, 505,
  507, 506,
  509, 508,
  509, 510,
  509, 511,
  513, 512,
  515, 514,
  517, 516,
  517, 518,
  517, 519,
  521, 520,
  523, 522,
  525, 524,
  527, 526,
  527, 528,
  530, 529,
  530, 531,
  530, 532,
  534, 533,
  536, 535,
  538, 537,
  540, 539,
  542, 541,
  544, 543,
  544, 545,
  547, 546,
  547, 548,
  547, 549,
  551, 550,
  553, 552,
  553, 554,
  553, 555,
  557, 556,
  559, 558,
  561, 560,
  563, 562,
  565, 564,
  565, 566,
  568, 567,
  570, 569,
  572, 571,
  572, 573,
  575, 574,
  575, 576,
  575, 577,
  579, 578,
  581, 580,
  581, 582,
  581, 583,
  585, 584,
  587, 586,
  589, 588,
  589, 590,
  589, 591,
  593, 592,
  595, 594,
  597, 596,
  599, 598,
  599, 600,
  602, 601,
  604, 603,
  606, 605,
  606, 607,
  609, 608,
  609, 610,
  609, 611,
  613, 612,
  615, 614,
  617, 616,
  617, 618,
  620, 619,
  620, 621,
  620, 622,
  624, 623,
  626, 625,
  626, 627,
  626, 628,
  630, 629,
  632, 631,
  634, 633,
  634, 635,
  634, 636,
  638, 637,
  640, 639,
  642, 641,
  644, 643,
  644, 645,
  647, 646,
  647, 648,
  647, 649,
  651, 650,
  653, 652,
  655, 654,
  657, 656,
  659, 658,
  661, 660,
  661, 662,
  664, 663,
  664, 665,
  664, 666,
  668, 667,
  670, 669,
  672, 671,
  672, 673,
  675, 674,
  675, 676,
  675, 677,
  679, 678,
  681, 680,
  681, 682,
  681, 683,
  685, 684,
  687, 686,
  689, 688,
  689, 690,
  692, 691,
  692, 693,
  692, 694,
  696, 695,
  698, 697,
  698, 699,
  698, 700,
  702, 701,
  704, 703,
  706, 705,
  706, 707,
  706, 708,
  710, 709,
  712, 711,
  714, 713,
  716, 715,
  716, 717,
  719, 718,
  719, 720,
  719, 721,
  723, 722,
  725, 724,
  727, 726,
  729, 728,
  731, 730,
  733, 732,
  733, 734,
  736, 735,
  736, 737,
  736, 738,
  740, 739,
  742, 741,
  742, 743,
  742, 744,
  746, 745,
  748, 747,
  750, 749,
  752, 751,
  754, 753,
  754, 755,
  757, 756,
  759, 758,
  761, 760,
  761, 762,
  764, 763,
  764, 765,
  764, 766,
  768, 767,
  770, 769,
  770, 771,
  770, 772,
  774, 773,
  776, 775,
  778, 777,
  778, 779,
  781, 780,
  781, 782,
  781, 783,
  785, 784,
  787, 786,
  787, 788,
  787, 789,
  791, 790,
  793, 792,
  795, 794,
  795, 796,
  795, 797,
  799, 798,
  801, 800,
  803, 802,
  805, 804,
  805, 806,
  808, 807,
  808, 809,
  808, 810,
  812, 811,
  814, 813,
  814, 815,
  814, 816,
  818, 817,
  820, 819,
  822, 821,
  822, 823,
  822, 824,
  826, 825,
  828, 827,
  830, 829,
  832, 831,
  832, 833,
  835, 834,
  835, 836,
  835, 837,
  839, 838,
  841, 840,
  843, 842,
  845, 844,
  847, 846,
  849, 848,
  849, 850,
  852, 851,
  852, 853,
  852, 854,
  856, 855,
  858, 857,
  858, 859,
  858, 860,
  862, 861,
  864, 863,
  866, 865,
  868, 867,
  870, 869,
  870, 871,
  873, 872,
  875, 874,
  877, 876,
  877, 878,
  880, 879,
  880, 881,
  880, 882,
  884, 883,
  886, 885,
  886, 887,
  886, 888,
  890, 889,
  892, 891,
  894, 893,
  894, 895,
  894, 896,
  898, 897,
  900, 899,
  902, 901,
  904, 903,
  904, 905,
  907, 906,
  909, 908,
  911, 910,
  911, 912,
  914, 913,
  914, 915,
  914, 916,
  918, 917,
  920, 919,
  922, 921,
  922, 923,
  925, 924,
  925, 926,
  925, 927,
  929, 928,
  931, 930,
  931, 932,
  931, 933,
  935, 934,
  937, 936,
  939, 938,
  939, 940,
  939, 941,
  943, 942,
  945, 944,
  947, 946,
  949, 948,
  949, 950,
  952, 951,
  952, 953,
  952, 954,
  956, 955,
  958, 957,
  960, 959,
  962, 961,
  964, 963,
  966, 965,
  966, 967,
  969, 968,
  969, 970,
  969, 971,
  973, 972,
  975, 974,
  977, 976,
  977, 978,
  980, 979,
  980, 981,
  980, 982,
  984, 983,
  986, 985,
  986, 987,
  986, 988,
  990, 989,
  992, 991,
  994, 993,
  994, 995,
  997, 996,
  997, 998,
  997, 999,
  1001, 1000,
  1003, 1002,
  1003, 1004,
  1003, 1005,
  1007, 1006,
  1009, 1008,
  1011, 1010,
  1011, 1012,
  1011, 1013,
  1015, 1014,
  1017, 1016,
  1019, 1018,
  1021, 1020,
  1021, 1022,
  1024, 1023,
  1024, 1025,
  1024, 1026,
  1028, 1027,
  1030, 1029,
  1032, 1031,
  1034, 1033,
  1036, 1035,
  1038, 1037,
  1038, 1039,
  1041, 1040,
  1041, 1042,
  1041, 1043,
  1045, 1044,
  1047, 1046,
  1047, 1048,
  1047, 1049,
  1051, 1050,
  1053, 1052,
  1055, 1054,
  1057, 1056,
  1059, 1058,
  1059, 1060,
  1062, 1061,
  1064, 1063,
  1066, 1065,
  1066, 1067,
  1069, 1068,
  1069, 1070,
  1069, 1071,
  1073, 1072,
  1075, 1074,
  1075, 1076,
  1075, 1077,
  1079, 1078,
  1081, 1080,
  1083, 1082,
  1083, 1084,
  1086, 1085,
  1086, 1087,
  1086, 1088,
  1090, 1089,
  1092, 1091,
  1092, 1093,
  1092, 1094,
  1096, 1095,
  1098, 1097,
  1100, 1099,
  1100, 1101,
  1100, 1102,
  1104, 1103,
  1106, 1105,
  1108, 1107,
  1110, 1109,
  1110, 1111,
  1113, 1112,
  1113, 1114,
  1113, 1115,
  1117, 1116,
  1119, 1118,
  1119, 1120,
  1119, 1121,
  1123, 1122,
  1125, 1124,
  1127, 1126,
  1127, 1128,
  1127, 1129,
  1131, 1130,
  1133, 1132,
  1135, 1134,
  1137, 1136,
  1137, 1138,
  1140, 1139,
  1140, 1141,
  1140, 1142,
  1144, 1143,
  1146, 1145,
  1148, 1147,
  1150, 1149,
  1152, 1151,
  1154, 1153,
  1154, 1155,
  1157, 1156,
  1157, 1158,
  1157, 1159,
  1161, 1160,
  1163, 1162,
  1163, 1164,
  1163, 1165,
  1167, 1166,
  1169, 1168,
  1171, 1170,
  1173, 1172,
  1175, 1174,
  1175, 1176,
  1178, 1177,
  1180, 1179,
  1182, 1181,
  1182, 1183,
  1185, 1184,
  1185, 1186,
  1185, 1187,
  1189, 1188,
  1191, 1190,
  1191, 1192,
  1191, 1193,
  1195, 1194,
  1197, 1196,
  1199, 1198,
  1199, 1200,
  1199, 1201,
  1203, 1202,
  1205, 1204,
  1207, 1206,
  1209, 1208,
  1209, 1210,
  1212, 1211,
  1214, 1213,
  1216, 1215,
  1216, 1217,
  1219, 1218,
  1219, 1220,
  1219, 1221,
  1223, 1222,
  1225, 1224,
  1227, 1226,
  1227, 1228,
  1230, 1229,
  1230, 1231,
  1230, 1232,
  1234, 1233,
  1236, 1235,
  1236, 1237,
  1236, 1238,
  1240, 1239,
  1242, 1241,
  1244, 1243,
  1244, 1245,
  1244, 1246,
  1248, 1247,
  1250, 1249,
  1252, 1251,
  1254, 1253,
  1254, 1255,
  1257, 1256,
  1257, 1258,
  1257, 1259,
  1261, 1260,
  1263, 1262,
  1263, 1264,
  1263, 1265,
  1267, 1266,
  1269, 1268,
  1271, 1270,
  1271, 1272,
  1271, 1273,
  1275, 1274,
  1277, 1276,
  1279, 1278,
  1281, 1280,
  1281, 1282,
  1284, 1283,
  1284, 1285,
  1284, 1286,
  1288, 1287,
  1290, 1289,
  1292, 1291,
  801, 800,
  803, 802,
  805, 804,
  805, 806,
  808, 807,
  808, 809,
  808, 810,
  812, 811,
  814, 813,
  814, 815,
  814, 816,
  818, 817,
  820, 819,
  822, 821,
  822, 823,
  822, 824,
  826, 825,
  828, 827,
  830, 829,
  832, 831,
  832, 833,
  835, 834,
  835, 836,
  835, 837,
  839, 838,
  841, 840,
  843, 842,
  845, 844,
  847, 846,
  849, 848,
  849, 850,
  852, 851,
  852, 853,
  852, 854,
  856, 855,
  858, 857,
  858, 859,
  858, 860,
  862, 861,
  864, 863,
  866, 865,
  868, 867,
  870, 869,
  870, 871,
  873, 872,
  875, 874,
  877, 876,
  877, 878,
  880, 879,
  880, 881,
  880, 882,
  884, 883,
  886, 885,
  886, 887,
  886, 888,
  890, 889,
  892, 891,
  894, 893,
  894, 895,
  894, 896,
  898, 897,
  900, 899,
  902, 901,
  904, 903,
  904, 905,
  907, 906,
  909, 908,
  911, 910,
  911, 912,
  914, 913,
  914, 915,
  914, 916,
  918, 917,
  920, 919,
  922, 921,
  922, 923,
  925, 924,
  925, 926,
  925, 927,
  929, 928,
  931, 930,
  931, 932,
  931, 933,
  935, 934,
  937, 936,
  939, 938,
  939, 940,
  939, 941,
  943, 942,
  945, 944,
  947, 946,
  949, 948,
  949, 950,
  952, 951,
  952, 953,
  952, 954,
  956, 955,
  958, 957,
  960, 959,
  962, 961,
  964, 963,
  966, 965,
  966, 967,
  969, 968,
  969, 970,
  969, 971,
  973, 972,
  975, 974,
  977, 976,
  977, 978,
  980, 979,
  980, 981,
  980, 982,
  984, 983,
  986, 985,
  986, 987,
  986, 988,
  990, 989,
  992, 991,
  994, 993,
  994, 995,
  997, 996,
  997, 998,
  997, 999,
  1001, 1000,
  1003, 1002,
  1003, 1004,
  1003, 1005,
  1007, 1006,
  1009, 1008,
  1011, 1010,
  1011, 1012,
  1011, 1013,
  1015, 1014,
  1017, 1016,
  1019, 1018,
  1021, 1020,
  1021, 1022,
  1024, 1023,
  1024, 1025,
  1024, 1026,
  1028, 1027,
  1030, 1029,
  1032, 1031,
  1034, 1033,
  1036, 1035,
  1038, 1037,
  1038, 1039,
  1041, 1040,
  1041, 1042,
  1041, 1043,
  1045, 1044,
  1047, 1046,
  1047, 1048,
  1047, 1049,
  1051, 1050,
  1053, 1052,
  1055, 1054,
  1057, 1056,
  1059, 1058,
  1059, 1060,
  1062, 1061,
  1064, 1063,
  1066, 1065,
  1066, 1067,
  1069, 1068,
  1069, 1070,
  1069, 1071,
  1073, 1072,
  1075, 1074,
  1075, 1076,
  1075, 1077,
  1079, 1078,
  1081, 1080,
  1083, 1082,
  1083, 1084,
  1086, 1085,
  1086, 1087,
  1086, 1088,
  1090, 1089,
  1092, 1091,
  1092, 1093,
  1092, 1094,
  1096, 1095,
  1098, 1097,
  1100, 1099,
  1100, 1101,
  1100, 1102,
  1104, 1103,
  1106, 1105,
  1108, 1107,
  1110, 1109,
  1110, 1111,
  1113, 1112,
  1113, 1114,
  1113, 1115,
  1117, 1116,
  1119, 1118,
  1119, 1120,
  1119, 1121,
  1123, 1122,
  1125, 1124,
  1127, 1126,
  1127, 1128,
  1127, 1129,
  1131, 1130,
  1133, 1132,
  1135, 1134,
  1137, 1136,
  1137, 1138,
  1140, 1139,
  1140, 1141,
  1140, 1142,
  1144, 1143,
  1146, 1145,
  1148, 1147,
  1150, 1149,
  1152, 1151,
  1154, 1153,
  1154, 1155,
  1157, 1156,
  1157, 1158,
  1157, 1159,
  1161, 1160,
  1163, 1162,
  1163, 1164,
  1163, 1165,
  1167, 1166,
  1169, 1168,
  1171, 1170,
  1173, 1172,
  1175, 1174,
  1175, 1176,
  1178, 1177,
  1180, 1179,
  1182, 1181,
  1182, 1183,
  1185, 1184,
  1185, 1186,
  1185, 1187,
  1189, 1188,
  1191, 1190,
  1191, 1192,
  1191, 1193,
  1195, 1194,
  1197, 1196,
  1199, 1198,
  1199, 1200,
  1199, 1201,
  1203, 1202,
  1205, 1204,
  1207, 1206,
  1209, 1208,
  1209, 1210,
  1212, 1211,
  1214, 1213,
  1216, 1215,
  1216, 1217,
  1219, 1218,
  1219, 1220,
  1219, 1221,
  1223, 1222,
  1225, 1224,
  1227, 1226,
  1227, 1228,
  1230, 1229,
  1230, 1231,
  1230, 1232,
  1234, 1233,
  1236, 1235,
  1236, 1237,
  1236, 1238,
  1240, 1239,
  1242, 1241,
  1244, 1243,
  1244, 1245,
  1244, 1246,
  1248, 1247,
  1250, 1249,
  1252, 1251,
  1254, 1253,
  1254, 1255,
  1257, 1256,
  1257, 1258,
  1257, 1259,
  1261, 1260,
  1263, 1262,
  1263, 1264,
  1263, 1265,
  1267, 1266,
  1269, 1268,
  1271, 1270,
  1271, 1272,
  1271, 1273,
  1275, 1274,
  1277, 1276,
  1279, 1278,
  1281, 1280,
  1281, 1282,
  1284, 1283,
  1284, 1285,
  1284, 1286,
  1288, 1287,
  1290, 1289,
  1292, 1291,
  190, 189,
  192, 191,
  194, 193,
  194, 195,
  197, 196,
  197, 198,
  197, 199,
  201, 200,
  203, 202,
  203, 204,
  203, 205,
  207, 206,
  209, 208,
  211, 210,
  211, 212,
  211, 213,
  215, 214,
  217, 216,
  219, 218,
  221, 220,
  221, 222,
  224, 223,
  224, 225,
  224, 226,
  228, 227,
  230, 229,
  232, 231,
  234, 233,
  236, 235,
  238, 237,
  238, 239,
  241, 240,
  241, 242,
  241, 243,
  245, 244,
  247, 246,
  247, 248,
  247, 249,
  251, 250,
  253, 252,
  255, 254,
  257, 256,
  259, 258,
  259, 260,
  262, 261,
  264, 263,
  266, 265,
  266, 267,
  269, 268,
  269, 270,
  269, 271,
  273, 272,
  275, 274,
  275, 276,
  275, 277,
  279, 278,
  281, 280,
  283, 282,
  283, 284,
  283, 285,
  287, 286,
  289, 288,
  291, 290,
  293, 292,
  293, 294,
  296, 295,
  298, 297,
  300, 299,
  300, 301,
  303, 302,
  303, 304,
  303, 305,
  47, 46,
  49, 48,
  51, 50,
  51, 52,
  54, 53,
  54, 55,
  54, 56,
  58, 57,
  60, 59,
  60, 61,
  60, 62,
  64, 63,
  66, 65,
  68, 67,
  68, 69,
  68, 70,
  72, 71,
  12, 11,
  14, 13,
  16, 15,
  16, 17,
  1, 4,
  1, 2,
  1, 3,
  6, 5,
  8, 7,
  10, 9,
  19, 18,
  21, 20,
  23, 22,
  23, 24,
  26, 25,
  26, 27,
  26, 28,
  30, 29,
  32, 31,
  34, 33,
  34, 35,
  37, 36,
  37, 38,
  37, 39,
  41, 40,
  43, 42,
  43, 44,
  43, 45,
  74, 73,
  76, 75,
  78, 77,
  78, 79,
  81, 80,
  81, 82,
  81, 83,
  85, 84,
  87, 86,
  87, 88,
  87, 89,
  91, 90,
  93, 92,
  95, 94,
  95, 96,
  95, 97,
  99, 98,
  101, 100,
  103, 102,
  105, 104,
  105, 106,
  108, 107,
  108, 109,
  108, 110,
  112, 111,
  114, 113,
  116, 115,
  118, 117,
  120, 119,
  122, 121,
  122, 123,
  125, 124,
  125, 126,
  125, 127,
  129, 128,
  131, 130,
  131, 132,
  131, 133,
  135, 134,
  137, 136,
  139, 138,
  139, 140,
  139, 141,
  143, 142,
  145, 144,
  147, 146,
  149, 148,
  149, 150,
  152, 151,
  152, 153,
  152, 154,
  156, 155,
  158, 157,
  160, 159,
  162, 161,
  164, 163,
  166, 165,
  166, 167,
  169, 168,
  169, 170,
  169, 171,
  173, 172,
  175, 174,
  175, 176,
  175, 177,
  179, 178,
  181, 180,
  183, 182,
  185, 184,
  187, 186,
  187, 188
]);
d_nfa = array2d(1..1292, 1..2, [
  {}, {},
  {}, {},
  {}, {},
  {}, {},
  {}, {},
  {}, {},
  {}, {},
  {}, {},
  {}, {},
  {}, {},
  {}, {},
  {}, {},
  {}, {},
  {}, {},
  {}, {},
  {}, {},
  {}, {},
  {}, {},
  {}, {},
  {}, {},
  {}, {},
  {}, {},
  {}, {},
  {}, {},
  {}, {},
  {}, {},
  {}, {},
  {}, {},
  {}, {},
  {}, {},
  {}, {},
  {}, {},
  {}, {},
  {}, {},
  {}, {},
  {}, {},
  {}, {},
  {}, {},
  {}, {},
  {}, {},
  {}, {},
  {}, {},
  {}, {},
  {}, {},
  {}, {},
  {}, {},
  {}, {},
  {}, {},
  {}, {},
  {}, {},
  {}, {},
  {}, {},
  {}, {},
  {}, {},
  {}, {},
  {}, {},
  {}, {},
  {}, {},
  {}, {},
  {}, {},
  {}, {},
  {}, {},
  {}, {},
  {}, {},
  {}, {},
  {}, {},
  {}, {},
  {}, {},
  {}, {},
  {}, {},
  {}, {},
  {}, {},
  {}, {},
  {}, {},
  {}, {},
  {}, {},
  {}, {},
  {}, {},
  {}, {},
  {}, {},
  {}, {},
  {}, {},
  {}, {},
  {}, {},
  {}, {},
  {}, {},
  {}, {},
  {}, {},
  {}, {},
  {}, {},
  {}, {},
  {}, {},
  {}, {},
  {}, {},
  {}, {},
  {}, {},
  {}, {},
  {}, {},
  {}, {},
  {}, {},
  {}, {},
  {}, {},
  {}, {},
  {}, {},
  {}, {},
  {}, {},
  {}, {},
  {}, {},
  {}, {},
  {}, {},
  {}, {},
  {}, {},
  {}, {},
  {}, {},
  {}, {},
  {}, {},
  {}, {},
  {}, {},
  {}, {},
  {}, {},
  {}, {},
  {}, {},
  {}, {},
  {}, {},
  {}, {},
  {}, {},
  {}, {},
  {}, {},
  {}, {},
  {}, {},
  {}, {},
  {}, {},
  {}, {},
  {}, {},
  {}, {},
  {}, {},
  {}, {},
  {}, {},
  {}, {},
  {}, {},
  {}, {},
  {}, {},
  {}, {},
  {}, {},
  {}, {},
  {}, {},
  {}, {},
  {}, {},
  {}, {},
  {}, {},
  {}, {},
  {}, {},
  {}, {},
  {}, {},
  {}, {},
  {}, {},
  {}, {},
  {}, {},
  {}, {},
  {}, {},
  {}, {},
  {}, {},
  {}, {},
  {}, {},
  {}, {},
  {}, {},
  {}, {},
  {}, {},
  {}, {},
  {}, {},
  {}, {},
  {}, {},
  {}, {},
  {}, {},
  {}, {},
  {}, {},
  {}, {},
  {}, {},
  {}, {},
  {}, {},
  {}, {},
  {}, {},
  {}, {},
  {}, {},
  {}, {},
  {}, {},
  {}, {},
  {}, {},
  {}, {},
  {}, {},
  {}, {},
  {}, {},
  {}, {},
  {}, {},
  {}, {},
  {}, {},
  {}, {},
  {}, {},
  {}, {},
  {}, {},
  {}, {},
  {}, {},
  {}, {},
  {}, {},
  {}, {},
  {}, {},
  {}, {},
  {}, {},
  {}, {},
  {}, {},
  {}, {},
  {}, {},
  {}, {},
  {}, {},
  {}, {},
  {}, {},
  {}, {},
  {}, {},
  {}, {},
  {}, {},
  {}, {},
  {}, {},
  {}, {},
  {}, {},
  {}, {},
  {}, {},
  {}, {},
  {}, {},
  {}, {},
  {}, {},
  {}, {},
  {}, {},
  {}, {},
  {}, {},
  {}, {},
  {}, {},
  {}, {},
  {}, {},
  {}, {},
  {}, {},
  {}, {},
  {}, {},
  {}, {},
  {}, {},
  {}, {},
  {}, {},
  {}, {},
  {}, {},
  {}, {},
  {}, {},
  {}, {},
  {}, {},
  {}, {},
  {}, {},
  {}, {},
  {}, {},
  {}, {},
  {}, {},
  {}, {},
  {}, {},
  {}, {},
  {}, {},
  {}, {},
  {}, {},
  {}, {},
  {}, {},
  {}, {},
  {}, {},
  {}, {},
  {}, {},
  {}, {},
  {}, {},
  {}, {},
  {}, {},
  {}, {},
  {}, {},
  {}, {},
  {}, {},
  {}, {},
  {}, {},
  {}, {},
  {}, {},
  {}, {},
  {}, {},
  {}, {},
  {}, {},
  {}, {},
  {}, {},
  {}, {},
  {}, {},
  {}, {},
  {}, {},
  {}, {},
  {}, {},
  {}, {},
  {}, {},
  {}, {},
  {}, {},
  {}, {},
  {}, {},
  {}, {},
  {}, {},
  {}, {},
  {}, {},
  {}, {},
  {}, {},
  {}, {},
  {}, {},
  {}, {},
  {}, {},
  {}, {},
  {}, {},
  {}, {},
  {}, {},
  {}, {},
  {}, {},
  {}, {},
  {}, {},
  {}, {},
  {}, {},
  {}, {},
  {}, {},
  {}, {},
  {}, {},
  {}, {},
  {}, {},
  {}, {},
  {}, {},
  {}, {},
  {}, {},
  {}, {},
  {}, {},
  {}, {},
  {}, {},
  {}, {},
  {}, {},
  {}, {},
  {}, {},
  {}, {},
  {}, {},
  {}, {},
  {}, {},
  {}, {},
  {}, {},
  {}, {},
  {}, {},
  {}, {},
  {}, {},
  {}, {},
  {}, {},
  {}, {},
  {}, {},
  {}, {},
  {}, {},
  {}, {},
  {}, {},
  {}, {},
  {}, {},
  {}, {},
  {}, {},
  {}, {},
  {}, {},
  {}, {},
  {}, {},
  {}, {},
  {}, {},
  {}, {},
  {}, {},
  {}, {},
  {}, {},
  {}, {},
  {}, {},
  {}, {},
  {}, {},
  {}, {},
  {}, {},
  {}, {},
  {}, {},
  {}, {},
  {}, {},
  {}, {},
  {}, {},
  {}, {},
  {}, {},
  {}, {},
  {}, {},
  {}, {},
  {}, {},
  {}, {},
  {}, {},
  {}, {},
  {}, {},
  {}, {},
  {}, {},
  {}, {},
  {}, {},
  {}, {},
  {}, {},
  {}, {},
  {}, {},
  {}, {},
  {}, {},
  {}, {},
  {}, {},
  {}, {},
  {}, {},
  {}, {},
  {}, {},
  {}, {},
  {}, {},
  {}, {},
  {}, {},
  {}, {},
  {}, {},
  {}, {},
  {}, {},
  {}, {},
  {}, {},
  {}, {},
  {}, {},
  {}, {},
  {}, {},
  {}, {},
  {}, {},
  {}, {},
  {}, {},
  {}, {},
  {}, {},
  {}, {},
  {}, {},
  {}, {},
  {}, {},
  {}, {},
  {}, {},
  {}, {},
  {}, {},
  {}, {},
  {}, {},
  {}, {},
  {}, {},
  {}, {},
  {}, {},
  {}, {},
  {}, {},
  {}, {},
  {}, {},
  {}, {},
  {}, {},
  {}, {},
  {}, {},
  {}, {},
  {}, {},
  {}, {},
  {}, {},
  {}, {},
  {}, {},
  {}, {},
  {}, {},
  {}, {},
  {}, {},
  {}, {},
  {}, {},
  {}, {},
  {}, {},
  {}, {},
  {}, {},
  {}, {},
  {}, {},
  {}, {},
  {}, {},
  {}, {},
  {}, {},
  {}, {},
  {}, {},
  {}, {},
  {}, {},
  {}, {},
  {}, {},
  {}, {},
  {}, {},
  {}, {},
  {}, {},
  {}, {},
  {}, {},
  {}, {},
  {}, {},
  {}, {},
  {}, {},
  {}, {},
  {}, {},
  {}, {},
  {}, {},
  {}, {},
  {}, {},
  {}, {},
  {}, {},
  {}, {},
  {}, {},
  {}, {},
  {}, {},
  {}, {},
  {}, {},
  {}, {},
  {}, {},
  {}, {},
  {}, {},
  {}, {},
  {}, {},
  {}, {},
  {}, {},
  {}, {},
  {}, {},
  {}, {},
  {}, {},
  {}, {},
  {}, {},
  {}, {},
  {}, {},
  {}, {},
  {}, {},
  {}, {},
  {}, {},
  {}, {},
  {}, {},
  {}, {},
  {}, {},
  {}, {},
  {}, {},
  {}, {},
  {}, {},
  {}, {},
  {}, {},
  {}, {},
  {}, {},
  {}, {},
  {}, {},
  {}, {},
  {}, {},
  {}, {},
  {}, {},
  {}, {},
  {}, {},
  {}, {},
  {}, {},
  {}, {},
  {}, {},
  {}, {},
  {}, {},
  {}, {},
  {}, {},
  {}, {},
  {}, {},
  {}, {},
  {}, {},
  {}, {},
  {}, {},
  {}, {},
  {}, {},
  {}, {},
  {}, {},
  {}, {},
  {}, {},
  {}, {},
  {}, {},
  {}, {},
  {}, {},
  {}, {},
  {}, {},
  {}, {},
  {}, {},
  {}, {},
  {}, {},
  {}, {},
  {}, {},
  {}, {},
  {}, {},
  {}, {},
  {}, {},
  {}, {},
  {}, {},
  {}, {},
  {}, {},
  {}, {},
  {}, {},
  {}, {},
  {}, {},
  {}, {},
  {}, {},
  {}, {},
  {}, {},
  {}, {},
  {}, {},
  {}, {},
  {}, {},
  {}, {},
  {}, {},
  {}, {},
  {}, {},
  {}, {},
  {}, {},
  {}, {},
  {}, {},
  {}, {},
  {}, {},
  {}, {},
  {}, {},
  {}, {},
  {}, {},
  {}, {},
  {}, {},
  {}, {},
  {}, {},
  {}, {},
  {}, {},
  {}, {},
  {}, {},
  {}, {},
  {}, {},
  {}, {},
  {}, {},
  {}, {},
  {}, {},
  {}, {},
  {}, {},
  {}, {},
  {}, {},
  {}, {},
  {}, {},
  {}, {},
  {}, {},
  {}, {},
  {}, {},
  {}, {},
  {}, {},
  {}, {},
  {}, {},
  {}, {},
  {}, {},
  {}, {},
  {}, {},
  {}, {},
  {}, {},
  {}, {},
  {}, {},
  {}, {},
  {}, {},
  {}, {},
  {}, {},
  {}, {},
  {}, {},
  {}, {},
  {}, {},
  {}, {},
  {}, {},
  {}, {},
  {}, {},
  {}, {},
  {}, {},
  {}, {},
  {}, {},
  {}, {},
  {}, {},
  {}, {},
  {}, {},
  {}, {},
  {}, {},
  {}, {},
  {}, {},
  {}, {},
  {}, {},
  {}, {},
  {}, {},
  {}, {},
  {}, {},
  {}, {},
  {}, {},
  {}, {},
  {}, {},
  {}, {},
  {}, {},
  {}, {},
  {}, {},
  {}, {},
  {}, {},
  {}, {},
  {}, {},
  {}, {},
  {}, {},
  {}, {},
  {}, {},
  {}, {},
  {}, {},
  {}, {},
  {}, {},
  {}, {},
  {}, {},
  {}, {},
  {}, {},
  {}, {},
  {}, {},
  {}, {},
  {}, {},
  {}, {},
  {}, {},
  {}, {},
  {}, {},
  {}, {},
  {}, {},
  {}, {},
  {}, {},
  {}, {},
  {}, {},
  {}, {},
  {}, {},
  {}, {},
  {}, {},
  {}, {},
  {}, {},
  {}, {},
  {}, {},
  {}, {},
  {}, {},
  {}, {},
  {}, {},
  {}, {},
  {}, {},
  {}, {},
  {}, {},
  {}, {},
  {}, {},
  {}, {},
  {}, {},
  {}, {},
  {}, {},
  {}, {},
  {}, {},
  {}, {},
  {}, {},
  {}, {},
  {}, {},
  {}, {},
  {}, {},
  {}, {},
  {}, {},
  {}, {},
  {}, {},
  {}, {},
  {}, {},
  {}, {},
  {}, {},
  {}, {},
  {}, {},
  {}, {},
  {}, {},
  {}, {},
  {}, {},
  {}, {},
  {}, {},
  {}, {},
  {}, {},
  {}, {},
  {}, {},
  {}, {},
  {}, {},
  {}, {},
  {}, {},
  {}, {},
  {}, {},
  {}, {},
  {}, {},
  {}, {},
  {}, {},
  {}, {},
  {}, {},
  {}, {},
  {}, {},
  {}, {},
  {}, {},
  {}, {},
  {}, {},
  {}, {},
  {}, {},
  {}, {},
  {}, {},
  {}, {},
  {}, {},
  {}, {},
  {}, {},
  {}, {},
  {}, {},
  {}, {},
  {}, {},
  {}, {},
  {}, {},
  {}, {},
  {}, {},
  {}, {},
  {}, {},
  {}, {},
  {}, {},
  {}, {},
  {}, {},
  {}, {},
  {}, {},
  {}, {},
  {}, {},
  {}, {},
  {}, {},
  {}, {},
  {}, {},
  {}, {},
  {}, {},
  {}, {},
  {}, {},
  {}, {},
  {}, {},
  {}, {},
  {}, {},
  {}, {},
  {}, {},
  {}, {},
  {}, {},
  {}, {},
  {}, {},
  {}, {},
  {}, {},
  {}, {},
  {}, {},
  {}, {},
  {}, {},
  {}, {},
  {}, {},
  {}, {},
  {}, {},
  {}, {},
  {}, {},
  {}, {},
  {}, {},
  {}, {},
  {}, {},
  {}, {},
  {}, {},
  {}, {},
  {}, {},
  {}, {},
  {}, {},
  {}, {},
  {}, {},
  {}, {},
  {}, {},
  {}, {},
  {}, {},
  {}, {},
  {}, {},
  {}, {},
  {}, {},
  {}, {},
  {}, {},
  {}, {},
  {}, {},
  {}, {},
  {}, {},
  {}, {},
  {}, {},
  {}, {},
  {}, {},
  {}, {},
  {}, {},
  {}, {},
  {}, {},
  {}, {},
  {}, {},
  {}, {},
  {}, {},
  {}, {},
  {}, {},
  {}, {},
  {}, {},
  {}, {},
  {}, {},
  {}, {},
  {}, {},
  {}, {},
  {}, {},
  {}, {},
  {}, {},
  {}, {},
  {}, {},
  {}, {},
  {}, {},
  {}, {},
  {}, {},
  {}, {},
  {}, {},
  {}, {},
  {}, {},
  {}, {},
  {}, {},
  {}, {},
  {}, {},
  {}, {},
  {}, {},
  {}, {},
  {}, {},
  {}, {},
  {}, {},
  {}, {},
  {}, {},
  {}, {},
  {}, {},
  {}, {},
  {}, {},
  {}, {},
  {}, {},
  {}, {},
  {}, {},
  {}, {},
  {}, {},
  {}, {},
  {}, {},
  {}, {},
  {}, {},
  {}, {},
  {}, {},
  {}, {},
  {}, {},
  {}, {},
  {}, {},
  {}, {},
  {}, {},
  {}, {},
  {}, {},
  {}, {},
  {}, {},
  {}, {},
  {}, {},
  {}, {},
  {}, {},
  {}, {},
  {}, {},
  {}, {},
  {}, {},
  {}, {},
  {}, {},
  {}, {},
  {}, {},
  {}, {},
  {}, {},
  {}, {},
  {}, {},
  {}, {},
  {}, {},
  {}, {},
  {}, {},
  {}, {},
  {}, {},
  {}, {},
  {}, {},
  {}, {},
  {}, {},
  {}, {},
  {}, {},
  {}, {},
  {}, {},
  {}, {},
  {}, {},
  {}, {},
  {}, {},
  {}, {},
  {}, {},
  {}, {},
  {}, {},
  {}, {},
  {}, {},
  {}, {},
  {}, {},
  {}, {},
  {}, {},
  {}, {},
  {}, {},
  {}, {},
  {}, {},
  {}, {},
  {}, {},
  {}, {},
  {}, {},
  {}, {},
  {}, {},
  {}, {},
  {}, {},
  {}, {},
  {}, {},
  {}, {},
  {}, {},
  {}, {},
  {}, {},
  {}, {},
  {}, {},
  {}, {},
  {}, {},
  {}, {},
  {}, {},
  {}, {},
  {}, {},
  {}, {},
  {}, {},
  {}, {},
  {}, {},
  {}, {},
  {}, {},
  {}, {},
  {}, {},
  {}, {},
  {}, {},
  {}, {},
  {}, {},
  {}, {},
  {}, {},
  {}, {},
  {}, {},
  {}, {},
  {}, {},
  {}, {},
  {}, {},
  {}, {},
  {}, {},
  {}, {},
  {}, {},
  {}, {},
  {}, {},
  {}, {},
  {}, {},
  {}, {},
  {}, {},
  {}, {},
  {}, {},
  {}, {},
  {}, {},
  {}, {},
  {}, {},
  {}, {},
  {}, {},
  {}, {},
  {}, {},
  {}, {},
  {}, {},
  {}, {},
  {}, {},
  {}, {},
  {}, {},
  {}, {},
  {}, {},
  {}, {},
  {}, {},
  {}, {},
  {}, {},
  {}, {},
  {}, {},
  {}, {},
  {}, {},
  {}, {},
  {}, {},
  {}, {},
  {}, {},
  {}, {},
  {}, {},
  {}, {},
  {}, {},
  {}, {},
  {}, {},
  {}, {},
  {}, {},
  {}, {},
  {}, {},
  {}, {},
  {}, {},
  {}, {},
  {}, {},
  {}, {},
  {}, {},
  {}, {},
  {}, {},
  {}, {},
  {}, {},
  {}, {},
  {}, {},
  {}, {},
  {}, {},
  {}, {},
  {}, {},
  {}, {},
  {}, {},
  {}, {},
  {}, {},
  {}, {},
  {}, {},
  {}, {},
  {}, {},
  {}, {},
  {}, {},
  {}, {},
  {}, {},
  {}, {},
  {}, {},
  {}, {},
  {}, {},
  {}, {},
  {}, {},
  {}, {},
  {}, {},
  {}, {},
  {}, {},
  {}, {},
  {}, {},
  {}, {},
  {}, {},
  {}, {},
  {}, {},
  {}, {},
  {}, {},
  {}, {},
  {}, {},
  {}, {},
  {}, {},
  {}, {},
  {}, {},
  {}, {},
  {}, {},
  {}, {},
  {}, {},
  {}, {},
  {}, {},
  {}, {},
  {}, {},
  {}, {},
  {}, {},
  {}, {},
  {}, {},
  {}, {},
  {}, {},
  {}, {},
  {}, {},
  {}, {},
  {}, {},
  {}, {},
  {}, {},
  {}, {},
  {}, {},
  {}, {},
  {}, {},
  {}, {},
  {}, {},
  {}, {},
  {}, {},
  {}, {},
  {}, {},
  {}, {},
  {}, {},
  {}, {},
  {}, {},
  {}, {},
  {}, {},
  {}, {},
  {}, {},
  {}, {},
  {}, {},
  {}, {},
  {}, {},
  {}, {},
  {}, {},
  {}, {},
  {}, {},
  {}, {},
  {}, {},
  {}, {},
  {}, {},
  {}, {},
  {}, {},
  {}, {},
  {}, {},
  {}, {},
  {}, {},
  {}, {},
  {}, {},
  {}, {},
  {}, {},
  {}, {},
  {}, {},
  {}, {},
  {}, {},
  {}, {},
  {}, {},
  {}, {},
  {}, {},
  {}, {},
  {}, {},
  {}, {},
  {}, {},
  {}, {},
  {}, {},
  {}, {},
  {}, {},
  {}, {},
  {}, {},
  {}, {},
  {}, {},
  {}, {},
  {}, {},
  {}, {},
  {}, {},
  {}, {},
  {}, {},
  {}, {},
  {}, {},
  {}, {},
  {}, {},
  {}, {},
  {}, {},
  {}, {},
  {}, {},
  {}, {},
  {}, {},
  {}, {},
  {}, {},
  {}, {},
  {}, {},
  {}, {},
  {}, {},
  {}, {},
  {}, {},
  {}, {},
  {}, {},
  {}, {},
  {}, {},
  {}, {},
  {}, {},
  {}, {},
  {}, {},
  {}, {},
  {}, {},
  {}, {},
  {}, {},
  {}, {},
  {}, {},
  {}, {},
  {}, {},
  {}, {},
  {}, {},
  {}, {},
  {}, {},
  {}, {},
  {}, {},
  {}, {},
  {}, {},
  {}, {},
  {}, {},
  {}, {},
  {}, {},
  {}, {},
  {}, {},
  {}, {},
  {}, {},
  {}, {},
  {}, {},
  {}, {},
  {}, {},
  {}, {},
  {}, {},
  {}, {},
  {}, {},
  {}, {},
  {}, {},
  {}, {},
  {}, {},
  {}, {},
  {}, {},
  {}, {},
  {}, {},
  {}, {},
  {}, {},
  {}, {},
  {}, {},
  {}, {},
  {}, {},
  {}, {},
  {}, {},
  {}, {},
  {}, {},
  {}, {},
  {}, {},
  {}, {},
  {}, {}
]);
